c CNF file corresponding to a (partial) station packing problem.
p cnf 5160 184
1 2 3 4 5 6 7 8 9 10 11 12 13 14 0
-1 -2 0
-1 -3 0
-1 -4 0
-1 -5 0
-1 -6 0
-1 -7 0
-1 -8 0
-1 -9 0
-1 -10 0
-1 -11 0
-1 -12 0
-1 -13 0
-1 -14 0
-2 -3 0
-2 -4 0
-2 -5 0
-2 -6 0
-2 -7 0
-2 -8 0
-2 -9 0
-2 -10 0
-2 -11 0
-2 -12 0
-2 -13 0
-2 -14 0
-3 -4 0
-3 -5 0
-3 -6 0
-3 -7 0
-3 -8 0
-3 -9 0
-3 -10 0
-3 -11 0
-3 -12 0
-3 -13 0
-3 -14 0
-4 -5 0
-4 -6 0
-4 -7 0
-4 -8 0
-4 -9 0
-4 -10 0
-4 -11 0
-4 -12 0
-4 -13 0
-4 -14 0
-5 -6 0
-5 -7 0
-5 -8 0
-5 -9 0
-5 -10 0
-5 -11 0
-5 -12 0
-5 -13 0
-5 -14 0
-6 -7 0
-6 -8 0
-6 -9 0
-6 -10 0
-6 -11 0
-6 -12 0
-6 -13 0
-6 -14 0
-7 -8 0
-7 -9 0
-7 -10 0
-7 -11 0
-7 -12 0
-7 -13 0
-7 -14 0
-8 -9 0
-8 -10 0
-8 -11 0
-8 -12 0
-8 -13 0
-8 -14 0
-9 -10 0
-9 -11 0
-9 -12 0
-9 -13 0
-9 -14 0
-10 -11 0
-10 -12 0
-10 -13 0
-10 -14 0
-11 -12 0
-11 -13 0
-11 -14 0
-12 -13 0
-12 -14 0
-13 -14 0
5147 5148 5149 5150 5151 5152 5153 5154 5155 5156 5157 5158 5159 5160 0
-5147 -5148 0
-5147 -5149 0
-5147 -5150 0
-5147 -5151 0
-5147 -5152 0
-5147 -5153 0
-5147 -5154 0
-5147 -5155 0
-5147 -5156 0
-5147 -5157 0
-5147 -5158 0
-5147 -5159 0
-5147 -5160 0
-5148 -5149 0
-5148 -5150 0
-5148 -5151 0
-5148 -5152 0
-5148 -5153 0
-5148 -5154 0
-5148 -5155 0
-5148 -5156 0
-5148 -5157 0
-5148 -5158 0
-5148 -5159 0
-5148 -5160 0
-5149 -5150 0
-5149 -5151 0
-5149 -5152 0
-5149 -5153 0
-5149 -5154 0
-5149 -5155 0
-5149 -5156 0
-5149 -5157 0
-5149 -5158 0
-5149 -5159 0
-5149 -5160 0
-5150 -5151 0
-5150 -5152 0
-5150 -5153 0
-5150 -5154 0
-5150 -5155 0
-5150 -5156 0
-5150 -5157 0
-5150 -5158 0
-5150 -5159 0
-5150 -5160 0
-5151 -5152 0
-5151 -5153 0
-5151 -5154 0
-5151 -5155 0
-5151 -5156 0
-5151 -5157 0
-5151 -5158 0
-5151 -5159 0
-5151 -5160 0
-5152 -5153 0
-5152 -5154 0
-5152 -5155 0
-5152 -5156 0
-5152 -5157 0
-5152 -5158 0
-5152 -5159 0
-5152 -5160 0
-5153 -5154 0
-5153 -5155 0
-5153 -5156 0
-5153 -5157 0
-5153 -5158 0
-5153 -5159 0
-5153 -5160 0
-5154 -5155 0
-5154 -5156 0
-5154 -5157 0
-5154 -5158 0
-5154 -5159 0
-5154 -5160 0
-5155 -5156 0
-5155 -5157 0
-5155 -5158 0
-5155 -5159 0
-5155 -5160 0
-5156 -5157 0
-5156 -5158 0
-5156 -5159 0
-5156 -5160 0
-5157 -5158 0
-5157 -5159 0
-5157 -5160 0
-5158 -5159 0
-5158 -5160 0
-5159 -5160 0
